# Solution for model r10_t9_m2_3
# Finished Task: 7 / 9
# Makespan: 502.0, Total Distance: 76.0, Total Time: 0.7387
# R O S F
0 0 17 397.0 397.0
1 1 -1 357.0 357.0
2 2 -1 502.0 502.0
3 3 -1 502.0 502.0
4 4 14 359.0 359.0
5 5 15 271.0 271.0
6 6 11 366.0 366.0
7 7 -1 502.0 502.0
8 8 13 107.0 107.0
9 9 -1 502.0 502.0
10 -1 -1 440.0 465.0
11 6 -1 432.0 465.0
12 8 -1 383.0 407.0
13 8 12 352.0 383.0
14 4 -1 363.0 383.0
15 5 16 279.0 301.0
16 5 -1 407.0 432.0
17 0 -1 411.0 440.0
18 -1 -1 465.0 502.0
